solution status: optimal solution found
objective value:                     144854.726668761
d11(0,0)                                            1 	(obj:0)
d11(1,1)                                            1 	(obj:0)
d11(1,2)                                            1 	(obj:0)
d11(2,4)                                            1 	(obj:0)
d11(2,5)                                            1 	(obj:0)
d11(2,7)                                            1 	(obj:0)
d11(2,8)                                            1 	(obj:0)
d11(2,10)                                           1 	(obj:0)
d11(2,11)                                           1 	(obj:0)
d11(3,13)                                           1 	(obj:0)
d11(3,14)                                           1 	(obj:0)
d11(3,16)                                           1 	(obj:0)
d11(3,17)                                           1 	(obj:0)
d11(3,19)                                           1 	(obj:0)
d11(3,20)                                           1 	(obj:0)
d11(3,22)                                           1 	(obj:0)
d11(3,23)                                           1 	(obj:0)
d11(3,25)                                           1 	(obj:0)
d11(3,26)                                           1 	(obj:0)
d11(3,28)                                           1 	(obj:0)
d11(3,29)                                           1 	(obj:0)
d11(3,31)                                           1 	(obj:0)
d11(3,32)                                           1 	(obj:0)
d11(3,34)                                           1 	(obj:0)
d11(3,35)                                           1 	(obj:0)
d11(3,37)                                           1 	(obj:0)
d11(3,38)                                           1 	(obj:0)
d11(4,40)                                           1 	(obj:0)
d11(4,41)                                           1 	(obj:0)
d11(4,43)                                           1 	(obj:0)
d11(4,44)                                           1 	(obj:0)
d11(4,46)                                           1 	(obj:0)
d11(4,47)                                           1 	(obj:0)
d11(4,49)                                           1 	(obj:0)
d11(4,50)                                           1 	(obj:0)
d11(4,52)                                           1 	(obj:0)
d11(4,53)                                           1 	(obj:0)
d11(4,55)                                           1 	(obj:0)
d11(4,56)                                           1 	(obj:0)
d11(4,58)                                           1 	(obj:0)
d11(4,59)                                           1 	(obj:0)
d11(4,61)                                           1 	(obj:0)
d11(4,62)                                           1 	(obj:0)
d11(4,64)                                           1 	(obj:0)
d11(4,65)                                           1 	(obj:0)
d11(4,67)                                           1 	(obj:0)
d11(4,68)                                           1 	(obj:0)
d11(4,70)                                           1 	(obj:0)
d11(4,71)                                           1 	(obj:0)
d11(4,73)                                           1 	(obj:0)
d11(4,74)                                           1 	(obj:0)
d11(4,76)                                           1 	(obj:0)
d11(4,77)                                           1 	(obj:0)
d11(4,79)                                           1 	(obj:0)
d11(4,80)                                           1 	(obj:0)
d11(4,82)                                           1 	(obj:0)
d11(4,83)                                           1 	(obj:0)
d11(4,85)                                           1 	(obj:0)
d11(4,86)                                           1 	(obj:0)
d11(4,88)                                           1 	(obj:0)
d11(4,89)                                           1 	(obj:0)
d11(4,91)                                           1 	(obj:0)
d11(4,92)                                           1 	(obj:0)
d11(4,94)                                           1 	(obj:0)
d11(4,95)                                           1 	(obj:0)
d11(4,97)                                           1 	(obj:0)
d11(4,98)                                           1 	(obj:0)
d11(4,100)                                          1 	(obj:0)
d11(4,101)                                          1 	(obj:0)
d11(4,103)                                          1 	(obj:0)
d11(4,104)                                          1 	(obj:0)
d11(4,106)                                          1 	(obj:0)
d11(4,107)                                          1 	(obj:0)
d11(4,109)                                          1 	(obj:0)
d11(4,110)                                          1 	(obj:0)
d11(4,112)                                          1 	(obj:0)
d11(4,113)                                          1 	(obj:0)
d11(4,115)                                          1 	(obj:0)
d11(4,116)                                          1 	(obj:0)
d11(4,118)                                          1 	(obj:0)
d11(4,119)                                          1 	(obj:0)
d12(1,3)                                            1 	(obj:0)
d12(2,6)                                            1 	(obj:0)
d12(2,9)                                            1 	(obj:0)
d12(2,12)                                           1 	(obj:0)
d12(3,15)                                           1 	(obj:0)
d12(3,18)                                           1 	(obj:0)
d12(3,21)                                           1 	(obj:0)
d12(3,24)                                           1 	(obj:0)
d12(3,27)                                           1 	(obj:0)
d12(3,30)                                           1 	(obj:0)
d12(3,33)                                           1 	(obj:0)
d12(3,36)                                           1 	(obj:0)
d12(3,39)                                           1 	(obj:0)
d12(4,42)                                           1 	(obj:0)
d12(4,45)                                           1 	(obj:0)
d12(4,48)                           0.999999999999995 	(obj:0)
d12(4,51)                                           1 	(obj:0)
d12(4,54)                                           1 	(obj:0)
d12(4,57)                                           1 	(obj:0)
d12(4,60)                           0.999999999999993 	(obj:0)
d12(4,63)                                           1 	(obj:0)
d12(4,66)                                           1 	(obj:0)
d12(4,69)                                           1 	(obj:0)
d12(4,72)                                           1 	(obj:0)
d12(4,75)                                           1 	(obj:0)
d12(4,78)                                           1 	(obj:0)
d12(4,81)                                           1 	(obj:0)
d12(4,84)                                           1 	(obj:0)
d12(4,87)                                           1 	(obj:0)
d12(4,90)                                           1 	(obj:0)
d12(4,93)                                           1 	(obj:0)
d12(4,96)                                           1 	(obj:0)
d12(4,99)                                           1 	(obj:0)
d12(4,102)                                          1 	(obj:0)
d12(4,105)                                          1 	(obj:0)
d12(4,108)                                          1 	(obj:0)
d12(4,111)                                          1 	(obj:0)
d12(4,114)                                          1 	(obj:0)
d12(4,117)                                          1 	(obj:0)
d12(4,120)                                          1 	(obj:0)
d21(3,13)                                           1 	(obj:0)
d21(3,14)                                           1 	(obj:0)
d21(3,16)                                           1 	(obj:0)
d21(3,22)                                           1 	(obj:0)
d21(4,40)                                           1 	(obj:0)
d21(4,41)                                           1 	(obj:0)
d21(4,42)                                           1 	(obj:0)
d21(4,43)                                           1 	(obj:0)
d21(4,44)                                           1 	(obj:0)
d21(4,45)                                           1 	(obj:0)
d21(4,46)                                           1 	(obj:0)
d21(4,47)                                           1 	(obj:0)
d21(4,49)                                           1 	(obj:0)
d21(4,50)                                           1 	(obj:0)
d21(4,51)                                           1 	(obj:0)
d21(4,52)                                           1 	(obj:0)
d21(4,53)                                           1 	(obj:0)
d21(4,55)                                           1 	(obj:0)
d21(4,58)                                           1 	(obj:0)
d21(4,59)                                           1 	(obj:0)
d21(4,61)                                           1 	(obj:0)
d21(4,62)                                           1 	(obj:0)
d21(4,64)                                           1 	(obj:0)
d21(4,67)                                           1 	(obj:0)
d21(4,68)                                           1 	(obj:0)
d21(4,69)                                           1 	(obj:0)
d21(4,70)                                           1 	(obj:0)
d21(4,71)                                           1 	(obj:0)
d21(4,73)                                           1 	(obj:0)
d21(4,76)                                           1 	(obj:0)
d21(4,77)                                           1 	(obj:0)
d21(4,79)                                           1 	(obj:0)
d21(4,85)                                           1 	(obj:0)
d21(4,94)                                           1 	(obj:0)
d21(4,95)                                           1 	(obj:0)
d21(4,97)                                           1 	(obj:0)
d21(4,98)                                           1 	(obj:0)
d21(4,100)                                          1 	(obj:0)
d21(4,103)                                          1 	(obj:0)
d21(4,112)                                          1 	(obj:0)
y2(4,102)                            244.206972012216 	(obj:0)
y2(4,105)                            244.206972012216 	(obj:0)
y2(4,108)                            244.206972012216 	(obj:0)
y2(4,111)                            244.206972012216 	(obj:0)
y2(4,114)                            244.206972012216 	(obj:0)
y2(4,117)                            244.206972012216 	(obj:0)
y2(4,120)                            244.206972012216 	(obj:0)
STE(1,1)                             11945.6048219966 	(obj:0)
STE(0,0)                                        14175 	(obj:0)
STE(1,2)                             12942.3708253299 	(obj:0)
STE(1,3)                             13865.7934325951 	(obj:0)
STE(2,4)                               9716.209643993 	(obj:0)
STE(2,5)                             10712.9756473263 	(obj:0)
STE(2,6)                             11636.3982545915 	(obj:0)
STE(2,7)                             10712.9756473263 	(obj:0)
STE(2,8)                             11709.7416506596 	(obj:0)
STE(2,9)                             12633.1642579248 	(obj:0)
STE(2,10)                            11636.3982545916 	(obj:0)
STE(2,11)                            12633.1642579249 	(obj:0)
STE(2,12)                            13556.5868651901 	(obj:0)
STE(3,13)                            7486.81446598984 	(obj:0)
STE(3,14)                            8483.58046932317 	(obj:0)
STE(3,15)                            9407.00307658835 	(obj:0)
STE(3,16)                            8483.58046932313 	(obj:0)
STE(3,17)                            9480.34647265642 	(obj:0)
STE(3,18)                            10403.7690799216 	(obj:0)
STE(3,19)                            9407.00307658834 	(obj:0)
STE(3,20)                            10403.7690799216 	(obj:0)
STE(3,21)                            11327.1916871869 	(obj:0)
STE(3,22)                            8483.58046932313 	(obj:0)
STE(3,23)                            9480.34647265643 	(obj:0)
STE(3,24)                            10403.7690799216 	(obj:0)
STE(3,25)                            9480.34647265642 	(obj:0)
STE(3,26)                            10477.1124759897 	(obj:0)
STE(3,27)                            11400.5350832549 	(obj:0)
STE(3,28)                            10403.7690799216 	(obj:0)
STE(3,29)                            11400.5350832549 	(obj:0)
STE(3,30)                            12323.9576905202 	(obj:0)
STE(3,31)                             9407.0030765884 	(obj:0)
STE(3,32)                            10403.7690799217 	(obj:0)
STE(3,33)                            11327.1916871869 	(obj:0)
STE(3,34)                            10403.7690799217 	(obj:0)
STE(3,35)                             11400.535083255 	(obj:0)
STE(3,36)                            12323.9576905202 	(obj:0)
STE(3,37)                            11327.1916871869 	(obj:0)
STE(3,38)                            12323.9576905202 	(obj:0)
STE(3,39)                            13247.3802977854 	(obj:0)
STE(4,40)                             4591.2790827349 	(obj:0)
STE(4,41)                            5588.04508606819 	(obj:0)
STE(4,42)                            6584.81108940144 	(obj:0)
STE(4,43)                            5588.04508606824 	(obj:0)
STE(4,44)                            6584.81108940153 	(obj:0)
STE(4,45)                            7581.57709273478 	(obj:0)
STE(4,46)                            6511.46769333342 	(obj:0)
STE(4,47)                            7508.23369666671 	(obj:0)
STE(4,48)                                   8504.9997 	(obj:0)
STE(4,49)                            5588.04508606819 	(obj:0)
STE(4,50)                            6584.81108940148 	(obj:0)
STE(4,51)                            7581.57709273473 	(obj:0)
STE(4,52)                            6584.81108940148 	(obj:0)
STE(4,53)                            7581.57709273477 	(obj:0)
STE(4,54)                            8578.34309606803 	(obj:0)
STE(4,55)                            7508.23369666671 	(obj:0)
STE(4,56)                                   8504.9997 	(obj:0)
STE(4,57)                            9501.76570333325 	(obj:0)
STE(4,58)                            6511.46769333341 	(obj:0)
STE(4,59)                             7508.2336966667 	(obj:0)
STE(4,60)                                   8504.9997 	(obj:0)
STE(4,61)                             7508.2336966667 	(obj:0)
STE(4,62)                            8504.99969999999 	(obj:0)
STE(4,63)                            9501.76570333324 	(obj:0)
STE(4,64)                            8431.65630393192 	(obj:0)
STE(4,65)                            9428.42230726521 	(obj:0)
STE(4,66)                            10425.1883105985 	(obj:0)
STE(4,67)                             5588.0450860682 	(obj:0)
STE(4,68)                            6584.81108940149 	(obj:0)
STE(4,69)                            7581.57709273474 	(obj:0)
STE(4,70)                            6584.81108940149 	(obj:0)
STE(4,71)                            7581.57709273478 	(obj:0)
STE(4,72)                            8578.34309606803 	(obj:0)
STE(4,73)                            7508.23369666671 	(obj:0)
STE(4,74)                                   8504.9997 	(obj:0)
STE(4,75)                            9501.76570333325 	(obj:0)
STE(4,76)                            6584.81108940148 	(obj:0)
STE(4,77)                            7581.57709273477 	(obj:0)
STE(4,78)                            8578.34309606803 	(obj:0)
STE(4,79)                            7581.57709273477 	(obj:0)
STE(4,80)                            8578.34309606807 	(obj:0)
STE(4,81)                            9575.10909940132 	(obj:0)
STE(4,82)                                   8504.9997 	(obj:0)
STE(4,83)                            9501.76570333329 	(obj:0)
STE(4,84)                            10498.5317066665 	(obj:0)
STE(4,85)                            7508.23369666671 	(obj:0)
STE(4,86)                                   8504.9997 	(obj:0)
STE(4,87)                            9501.76570333325 	(obj:0)
STE(4,88)                                   8504.9997 	(obj:0)
STE(4,89)                            9501.76570333329 	(obj:0)
STE(4,90)                            10498.5317066665 	(obj:0)
STE(4,91)                            9428.42230726522 	(obj:0)
STE(4,92)                            10425.1883105985 	(obj:0)
STE(4,93)                            11421.9543139318 	(obj:0)
STE(4,94)                            6511.46769333346 	(obj:0)
STE(4,95)                            7508.23369666675 	(obj:0)
STE(4,96)                                   8504.9997 	(obj:0)
STE(4,97)                            7508.23369666675 	(obj:0)
STE(4,98)                            8504.99970000004 	(obj:0)
STE(4,99)                            9501.76570333329 	(obj:0)
STE(4,100)                           8431.65630393198 	(obj:0)
STE(4,101)                           9428.42230726527 	(obj:0)
STE(4,102)                           10425.1883105985 	(obj:0)
STE(4,103)                           7508.23369666676 	(obj:0)
STE(4,104)                           8504.99970000005 	(obj:0)
STE(4,105)                            9501.7657033333 	(obj:0)
STE(4,106)                           8504.99970000005 	(obj:0)
STE(4,107)                           9501.76570333334 	(obj:0)
STE(4,108)                           10498.5317066666 	(obj:0)
STE(4,109)                           9428.42230726527 	(obj:0)
STE(4,110)                           10425.1883105986 	(obj:0)
STE(4,111)                           11421.9543139318 	(obj:0)
STE(4,112)                           8431.65630393197 	(obj:0)
STE(4,113)                           9428.42230726526 	(obj:0)
STE(4,114)                           10425.1883105985 	(obj:0)
STE(4,115)                           9428.42230726526 	(obj:0)
STE(4,116)                           10425.1883105985 	(obj:0)
STE(4,117)                           11421.9543139318 	(obj:0)
STE(4,118)                           10351.8449145305 	(obj:0)
STE(4,119)                           11348.6109178638 	(obj:0)
STE(4,120)                            12345.376921197 	(obj:0)
y1(4,100)                            1585.38184492944 	(obj:0)
y1(4,101)                             688.29244192948 	(obj:0)
y1(4,103)                            1585.38184492944 	(obj:0)
y1(4,104)                             688.29244192948 	(obj:0)
y1(4,106)                            1585.38184492944 	(obj:0)
y1(4,107)                             688.29244192948 	(obj:0)
y1(4,109)                            1585.38184492944 	(obj:0)
y1(4,110)                             688.29244192948 	(obj:0)
y1(4,112)                            1585.38184492944 	(obj:0)
y1(4,113)                             688.29244192948 	(obj:0)
y1(4,115)                            1585.38184492944 	(obj:0)
y1(4,116)                             688.29244192948 	(obj:0)
y1(4,118)                            1585.38184492944 	(obj:0)
y1(4,119)                             688.29244192948 	(obj:0)
AVE(3)                                3399.3204933139 	(obj:0)
AVE(4)                               3353.21046544222 	(obj:0)
y2(4,99)                             244.206972012216 	(obj:0)
WG(3)                                 3399.3204933139 	(obj:10)
WG(4)                                3353.21046544222 	(obj:10)
BG(1)                                 3468.4278134725 	(obj:10)
BG(2)                                3468.42781347269 	(obj:10)
BG(3)                                69.1073201583787 	(obj:10)
BG(4)                                726.978761016379 	(obj:10)
WB(1)                                3134.60043707458 	(obj:0)
AVE(1)                               3134.60043707458 	(obj:0)
WB(2)                                3326.45170866643 	(obj:0)
AVE(2)                               3326.45170866643 	(obj:0)
y1(1,1)                              985.855660203096 	(obj:0)
y1(1,2)                              88.7662572031346 	(obj:0)
y1(2,4)                              985.855660203201 	(obj:0)
y1(2,5)                              88.7662572032394 	(obj:0)
y1(2,7)                              985.855660203201 	(obj:0)
y1(2,8)                              88.7662572032394 	(obj:0)
y1(2,10)                             985.855660203201 	(obj:0)
y1(2,11)                             88.7662572032394 	(obj:0)
y1(3,13)                             985.855660202848 	(obj:0)
y1(3,14)                             88.7662572028463 	(obj:0)
y1(3,16)                             985.855660202848 	(obj:0)
y1(3,17)                             88.7662572028863 	(obj:0)
y1(3,19)                             985.855660202848 	(obj:0)
y1(3,20)                             88.7662572028864 	(obj:0)
y1(3,22)                             985.855660202848 	(obj:0)
y1(3,23)                             88.7662572028863 	(obj:0)
y1(3,25)                             985.855660202848 	(obj:0)
y1(3,26)                              88.766257202886 	(obj:0)
y1(3,28)                             985.855660202848 	(obj:0)
y1(3,29)                             88.7662572028866 	(obj:0)
y1(3,31)                             985.855660202848 	(obj:0)
y1(3,32)                             88.7662572028863 	(obj:0)
y1(3,34)                             985.855660202848 	(obj:0)
y1(3,35)                             88.7662572028861 	(obj:0)
y1(3,37)                             985.855660202848 	(obj:0)
y1(3,38)                             88.7662572028862 	(obj:0)
y1(4,40)                             1585.38184492944 	(obj:0)
y1(4,41)                              688.29244192948 	(obj:0)
y1(4,43)                             1585.38184492944 	(obj:0)
y1(4,44)                              688.29244192948 	(obj:0)
y1(4,46)                             1585.38184492944 	(obj:0)
y1(4,47)                              688.29244192948 	(obj:0)
y1(4,49)                             1585.38184492944 	(obj:0)
y1(4,50)                              688.29244192948 	(obj:0)
y1(4,52)                             1585.38184492944 	(obj:0)
y1(4,53)                              688.29244192948 	(obj:0)
y1(4,55)                             1585.38184492944 	(obj:0)
y1(4,56)                              688.29244192948 	(obj:0)
y1(4,58)                             1585.38184492944 	(obj:0)
y1(4,59)                              688.29244192948 	(obj:0)
y1(4,61)                             1585.38184492944 	(obj:0)
y1(4,62)                              688.29244192948 	(obj:0)
y1(4,64)                             1585.38184492944 	(obj:0)
y1(4,65)                              688.29244192948 	(obj:0)
y1(4,67)                             1585.38184492944 	(obj:0)
y1(4,68)                              688.29244192948 	(obj:0)
y1(4,70)                             1585.38184492944 	(obj:0)
y1(4,71)                              688.29244192948 	(obj:0)
y1(4,73)                             1585.38184492944 	(obj:0)
y1(4,74)                              688.29244192948 	(obj:0)
y1(4,76)                             1585.38184492944 	(obj:0)
y1(4,77)                              688.29244192948 	(obj:0)
y1(4,79)                             1585.38184492944 	(obj:0)
y1(4,80)                              688.29244192948 	(obj:0)
y1(4,82)                             1585.38184492944 	(obj:0)
y1(4,83)                              688.29244192948 	(obj:0)
y1(4,85)                             1585.38184492944 	(obj:0)
y1(4,86)                              688.29244192948 	(obj:0)
y1(4,88)                             1585.38184492944 	(obj:0)
y1(4,89)                              688.29244192948 	(obj:0)
y1(4,91)                             1585.38184492944 	(obj:0)
y1(4,92)                              688.29244192948 	(obj:0)
y1(4,94)                             1585.38184492944 	(obj:0)
y1(4,95)                              688.29244192948 	(obj:0)
y1(4,97)                             1585.38184492944 	(obj:0)
y1(4,98)                              688.29244192948 	(obj:0)
y2(1,3)                              868.203613258021 	(obj:0)
y2(2,6)                              868.203613257841 	(obj:0)
y2(2,9)                              868.203613257851 	(obj:0)
y2(2,12)                             868.203613257841 	(obj:0)
y2(3,15)                             868.203613258263 	(obj:0)
y2(3,18)                             868.203613258263 	(obj:0)
y2(3,21)                             868.203613258263 	(obj:0)
y2(3,24)                             868.203613258263 	(obj:0)
y2(3,27)                             868.203613258263 	(obj:0)
y2(3,30)                             868.203613258263 	(obj:0)
y2(3,33)                             868.203613258263 	(obj:0)
y2(3,36)                             868.203613258263 	(obj:0)
y2(3,39)                             868.203613258263 	(obj:0)
y2(4,42)                             244.206972012216 	(obj:0)
y2(4,45)                             244.206972012216 	(obj:0)
y2(4,48)                              244.20697201226 	(obj:0)
y2(4,51)                             244.206972012216 	(obj:0)
y2(4,54)                             244.206972012216 	(obj:0)
y2(4,57)                             244.206972012216 	(obj:0)
y2(4,60)                             244.206972012269 	(obj:0)
y2(4,63)                             244.206972012216 	(obj:0)
y2(4,66)                             244.206972012216 	(obj:0)
y2(4,69)                             244.206972012216 	(obj:0)
y2(4,72)                             244.206972012216 	(obj:0)
y2(4,75)                             244.206972012216 	(obj:0)
y2(4,78)                             244.206972012216 	(obj:0)
y2(4,81)                             244.206972012216 	(obj:0)
y2(4,84)                             244.206972012216 	(obj:0)
y2(4,87)                             244.206972012216 	(obj:0)
y2(4,90)                             244.206972012216 	(obj:0)
y2(4,93)                             244.206972012216 	(obj:0)
y2(4,96)                             244.206972012216 	(obj:0)
